optimization via pyomo/model.col
V[1]
theta[0]
theta[1]
V[0]
P[0]
P[1]
Q[0]
Q[1]
delta_v
Q_shunt
k
